n = 14;

R =
[|0,0,0,1,7,7,7,7,7,7,7,0,0,0,
 |0,1,0,0,5,0,0,3,3,3,1,0,5,0,
 |0,0,0,0,5,0,4,0,0,0,7,0,5,0,
 |0,0,0,0,5,0,4,4,1,0,7,0,5,0,
 |0,3,3,3,5,0,4,4,0,0,7,0,5,0,
 |0,0,0,0,5,0,4,4,0,0,7,0,5,0,
 |7,0,0,4,4,4,4,4,0,0,7,3,0,0,
 |7,0,0,0,0,0,1,0,1,1,7,3,0,0,
 |7,0,3,3,3,0,0,0,0,1,7,3,0,3,
 |7,0,0,4,0,0,5,5,5,5,5,0,0,3,
 |7,0,0,4,1,0,0,0,0,0,0,0,0,3,
 |7,0,0,4,0,0,0,0,4,4,4,4,0,0,
 |7,0,0,4,0,0,6,6,6,6,6,6,0,0,
 |0,0,0,0,0,0,0,4,4,4,4,1,0,0,
 |];

